
Gurobi 9.5.2 (mac64[arm]) logging started Mon May  1 22:23:28 2023

Set parameter LogFile to value "Java/output/special_iterative/scenario_seed_0_nJob_50_machineCount_2/mip_increment_2/log.txt"
Gurobi Optimizer version 9.5.2 build v9.5.2rc0 (mac64[arm])
Thread count: 8 physical cores, 8 logical processors, using up to 8 threads
Optimize a model with 1662 rows, 13886 columns and 112211 nonzeros
Model fingerprint: 0xa1c1716a
Variable types: 0 continuous, 13886 integer (13886 binary)
Coefficient statistics:
  Matrix range     [1e+00, 3e+02]
  Objective range  [6e+01, 6e+06]
  Bounds range     [1e+00, 1e+00]
  RHS range        [1e+00, 1e+00]
Found heuristic solution: objective 2.034525e+07
Presolve removed 128 rows and 1640 columns
Presolve time: 0.12s
Presolved: 1534 rows, 12246 columns, 99228 nonzeros
Variable types: 0 continuous, 12246 integer (12246 binary)
Found heuristic solution: objective 1.562854e+07

Root relaxation: objective 1.274292e+04, 3168 iterations, 0.18 seconds (0.43 work units)

    Nodes    |    Current Node    |     Objective Bounds      |     Work
 Expl Unexpl |  Obj  Depth IntInf | Incumbent    BestBd   Gap | It/Node Time

     0     0 12742.9186    0  182 1.5629e+07 12742.9186   100%     -    0s
H    0     0                    3539776.0000 12742.9186   100%     -    0s
H    0     0                    2980896.0000 12742.9186   100%     -    0s
H    0     0                    2928544.0000 12742.9186   100%     -    0s
     0     0 12809.8454    0  280 2928544.00 12809.8454   100%     -    0s
H    0     0                    603872.00000 12809.8454  97.9%     -    1s
H    0     0                    602688.00000 12812.0364  97.9%     -    1s
H    0     0                    602624.00000 12812.0364  97.9%     -    1s
     0     0 12812.0364    0  269 602624.000 12812.0364  97.9%     -    1s
     0     0 12812.0763    0  274 602624.000 12812.0763  97.9%     -    1s
     0     0 12857.8192    0  290 602624.000 12857.8192  97.9%     -    2s
     0     0 12857.8192    0  189 602624.000 12857.8192  97.9%     -    2s
H    0     0                    150576.00000 12857.8192  91.5%     -    2s
     0     0 12857.8192    0  290 150576.000 12857.8192  91.5%     -    2s
H    0     0                    150464.00000 12857.8192  91.5%     -    3s
H    0     0                    14768.000000 12857.8192  12.9%     -    3s
     0     0 12876.7975    0  288 14768.0000 12876.7975  12.8%     -    3s
     0     0 12878.9043    0  300 14768.0000 12878.9043  12.8%     -    3s
     0     0 12879.2326    0  303 14768.0000 12879.2326  12.8%     -    3s
     0     0 12879.2361    0  302 14768.0000 12879.2361  12.8%     -    3s
H    0     0                    14736.000000 12879.2361  12.6%     -    3s
     0     0 12912.4718    0  322 14736.0000 12912.4718  12.4%     -    3s
H    0     0                    14704.000000 12912.4718  12.2%     -    3s
     0     0 12929.4206    0  316 14704.0000 12929.4206  12.1%     -    4s
     0     0 12931.1533    0  308 14704.0000 12931.1533  12.1%     -    4s
     0     0 12932.3906    0  312 14704.0000 12932.3906  12.0%     -    4s
     0     0 12932.7585    0  311 14704.0000 12932.7585  12.0%     -    4s
     0     0 12932.7774    0  317 14704.0000 12932.7774  12.0%     -    4s
     0     0 12966.3769    0  347 14704.0000 12966.3769  11.8%     -    4s
     0     0 12978.7192    0  343 14704.0000 12978.7192  11.7%     -    4s
     0     0 12986.0301    0  365 14704.0000 12986.0301  11.7%     -    4s
     0     0 12986.4967    0  361 14704.0000 12986.4967  11.7%     -    4s
     0     0 12986.6534    0  371 14704.0000 12986.6534  11.7%     -    4s
     0     0 12986.6757    0  377 14704.0000 12986.6757  11.7%     -    4s
H    0     0                    14064.000000 12986.6757  7.66%     -    5s
     0     0 13014.9594    0  388 14064.0000 13014.9594  7.46%     -    5s
H    0     0                    14032.000000 13014.9594  7.25%     -    5s
     0     0 13025.0323    0  417 14032.0000 13025.0323  7.18%     -    5s
     0     0 13027.3883    0  410 14032.0000 13027.3883  7.16%     -    5s
     0     0 13027.5193    0  421 14032.0000 13027.5193  7.16%     -    5s
     0     0 13039.2609    0  437 14032.0000 13039.2609  7.07%     -    5s
     0     0 13041.4175    0  438 14032.0000 13041.4175  7.06%     -    5s
     0     0 13042.6179    0  438 14032.0000 13042.6179  7.05%     -    5s
     0     0 13042.9657    0  443 14032.0000 13042.9657  7.05%     -    5s
     0     0 13043.0035    0  452 14032.0000 13043.0035  7.05%     -    5s
     0     0 13047.6871    0  458 14032.0000 13047.6871  7.01%     -    6s
     0     0 13048.9026    0  454 14032.0000 13048.9026  7.01%     -    6s
     0     0 13049.4625    0  457 14032.0000 13049.4625  7.00%     -    6s
     0     0 13049.7313    0  454 14032.0000 13049.7313  7.00%     -    6s
     0     0 13049.7516    0  461 14032.0000 13049.7516  7.00%     -    6s
H    0     0                    13872.000000 13049.7516  5.93%     -    6s
     0     0 13055.1206    0  462 13872.0000 13055.1206  5.89%     -    6s
     0     0 13056.9293    0  473 13872.0000 13056.9293  5.88%     -    6s
     0     0 13057.1466    0  475 13872.0000 13057.1466  5.87%     -    6s
     0     0 13060.5309    0  464 13872.0000 13060.5309  5.85%     -    6s
     0     0 13062.3148    0  477 13872.0000 13062.3148  5.84%     -    6s
     0     0 13062.5294    0  478 13872.0000 13062.5294  5.84%     -    6s
     0     0 13067.6046    0  479 13872.0000 13067.6046  5.80%     -    6s
     0     0 13068.7208    0  488 13872.0000 13068.7208  5.79%     -    6s
     0     0 13069.3825    0  484 13872.0000 13069.3825  5.79%     -    6s
     0     0 13069.5193    0  482 13872.0000 13069.5193  5.78%     -    6s
     0     0 13071.2272    0  482 13872.0000 13071.2272  5.77%     -    7s
     0     0 13071.5961    0  492 13872.0000 13071.5961  5.77%     -    7s
H    0     0                    13824.000000 13071.5961  5.44%     -    7s
     0     0 13071.6395    0  504 13824.0000 13071.6395  5.44%     -    7s
     0     0 13072.9627    0  487 13824.0000 13072.9627  5.43%     -    7s
     0     0 13072.9627    0  190 13824.0000 13072.9627  5.43%     -    7s
     0     0 13072.9627    0  315 13824.0000 13072.9627  5.43%     -    7s
     0     0 13072.9627    0  357 13824.0000 13072.9627  5.43%     -    8s
     0     0 13072.9627    0  402 13824.0000 13072.9627  5.43%     -    8s
     0     0 13072.9627    0  430 13824.0000 13072.9627  5.43%     -    8s
     0     0 13072.9627    0  455 13824.0000 13072.9627  5.43%     -    8s
H    0     0                    13792.000000 13072.9627  5.21%     -    8s
     0     0 13072.9627    0  475 13792.0000 13072.9627  5.21%     -    8s
     0     0 13072.9627    0  482 13792.0000 13072.9627  5.21%     -    8s
     0     0 13073.1588    0  488 13792.0000 13073.1588  5.21%     -    8s
     0     0 13073.2629    0  485 13792.0000 13073.2629  5.21%     -    8s
     0     0 13073.2686    0  492 13792.0000 13073.2686  5.21%     -    8s
     0     0 13075.9506    0  491 13792.0000 13075.9506  5.19%     -    8s
     0     0 13076.9071    0  488 13792.0000 13076.9071  5.18%     -    8s
     0     0 13077.0761    0  492 13792.0000 13077.0761  5.18%     -    8s
H    0     0                    13552.000000 13077.0761  3.50%     -    9s
     0     0 13083.2326    0  487 13552.0000 13083.2326  3.46%     -    9s
     0     0 13085.2530    0  508 13552.0000 13085.2530  3.44%     -    9s
     0     0 13086.2743    0  503 13552.0000 13086.2743  3.44%     -    9s
     0     0 13086.8674    0  501 13552.0000 13086.8674  3.43%     -    9s
     0     0 13086.8907    0  499 13552.0000 13086.8907  3.43%     -    9s
     0     0 13090.5882    0  498 13552.0000 13090.5882  3.40%     -   10s
     0     0 13091.7327    0  504 13552.0000 13091.7327  3.40%     -   10s
     0     0 13091.9260    0  510 13552.0000 13091.9260  3.39%     -   10s
     0     0 13092.1773    0  501 13552.0000 13092.1773  3.39%     -   10s
     0     0 13092.1773    0  484 13552.0000 13092.1773  3.39%     -   10s
     0     2 13092.2111    0  484 13552.0000 13092.2111  3.39%     -   10s
H   33    40                    13520.000000 13092.8959  3.16%   813   12s
H  113   113                    13472.000000 13092.8959  2.81%   737   14s
   129   136 13186.8157   12  423 13472.0000 13092.8959  2.81%   783   15s
H  134   136                    13408.000000 13092.8959  2.35%   759   15s
H  153   143                    13392.000000 13092.8959  2.23%   734   15s
   280   270 13208.2772   21  400 13392.0000 13092.8959  2.23%   761   20s
   576   463 13350.3644   33  398 13392.0000 13092.8959  2.23%   674   25s
   933   726 13297.5974   45  400 13392.0000 13092.8959  2.23%   651   30s
  1153   854 13141.6830    5  445 13392.0000 13112.3202  2.09%   633   35s
  1507  1004 13337.9485   13  292 13392.0000 13119.2976  2.04%   598   40s
  1544  1029 13160.5129    6  494 13392.0000 13119.2976  2.04%   584   45s
  1551  1042 13178.8648   18  435 13392.0000 13125.6152  1.99%   598   50s
  1652  1106 13238.6734   24  437 13392.0000 13152.5089  1.79%   636   55s
  1830  1191 13279.1980   33  367 13392.0000 13152.5089  1.79%   677   60s
  2069  1240 13236.2750   21  470 13392.0000 13166.7386  1.68%   686   65s
  2378  1320 13353.8164   29  396 13392.0000 13167.5416  1.68%   695   70s
H 2644  1161                    13344.000000 13182.0114  1.21%   689   73s
H 2652  1006                    13312.000000 13182.0114  0.98%   690   74s
  2726   990 13258.8599   28  375 13312.0000 13182.0114  0.98%   687   75s
  3096   944 13212.6907   24  426 13312.0000 13200.2145  0.84%   679   80s
  3587   836     cutoff   27      13312.0000 13211.1102  0.76%   673   85s
  4033   722 13311.4459   38  449 13312.0000 13217.6836  0.71%   671   90s
  4511   664 13282.8032   28  409 13312.0000 13226.2377  0.64%   670   96s
  5018   653 13311.4130   23  400 13312.0000 13235.0208  0.58%   665  101s
  5257   634     cutoff   40      13312.0000 13239.5117  0.54%   665  105s
  5743   574     cutoff   34      13312.0000 13245.3133  0.50%   664  111s
  6143   510     cutoff   28      13312.0000 13252.0068  0.45%   665  115s
  6645   400 13308.6695   32  383 13312.0000 13261.9444  0.38%   661  120s
  7175   135     cutoff   29      13312.0000 13274.2649  0.28%   653  125s

Cutting planes:
  Cover: 22
  Clique: 142
  MIR: 364
  StrongCG: 118
  Flow cover: 79
  GUB cover: 117
  Inf proof: 1
  Zero half: 6
  RLT: 19

Explored 7682 nodes (4913554 simplex iterations) in 126.13 seconds (395.50 work units)
Thread count was 8 (of 8 available processors)

Solution count 10: 13312 13344 13392 ... 13872

Optimal solution found (tolerance 1.00e-04)
Best objective 1.331200000000e+04, best bound 1.331200000000e+04, gap 0.0000%

Gurobi 9.5.2 (mac64[arm]) logging started Mon May  1 22:25:35 2023

Set parameter LogFile to value "Java/output/special_iterative/scenario_seed_0_nJob_50_machineCount_2/mip_increment_2/log.txt"
Gurobi Optimizer version 9.5.2 build v9.5.2rc0 (mac64[arm])
Thread count: 8 physical cores, 8 logical processors, using up to 8 threads
Optimize a model with 1648 rows, 9110 columns and 67266 nonzeros
Model fingerprint: 0xfad46a87
Variable types: 0 continuous, 9110 integer (9110 binary)
Coefficient statistics:
  Matrix range     [1e+00, 3e+02]
  Objective range  [3e+02, 1e+06]
  Bounds range     [1e+00, 1e+00]
  RHS range        [1e+00, 1e+00]
Found heuristic solution: objective 6075688.0000
Presolve removed 420 rows and 642 columns
Presolve time: 0.08s
Presolved: 1228 rows, 8468 columns, 62435 nonzeros
Variable types: 0 continuous, 8468 integer (8468 binary)
Found heuristic solution: objective 4129808.0000

Root relaxation: objective 1.058903e+04, 1684 iterations, 0.06 seconds (0.12 work units)

    Nodes    |    Current Node    |     Objective Bounds      |     Work
 Expl Unexpl |  Obj  Depth IntInf | Incumbent    BestBd   Gap | It/Node Time

     0     0 10589.0290    0   89 4129808.00 10589.0290   100%     -    0s
H    0     0                    960856.00000 10589.0290  98.9%     -    0s
H    0     0                    923196.00000 10589.0290  98.9%     -    0s
H    0     0                    758440.00000 10589.0290  98.6%     -    0s
H    0     0                    58872.000000 10589.0290  82.0%     -    0s
     0     0 10902.3072    0  115 58872.0000 10902.3072  81.5%     -    0s
     0     0 10902.3072    0   85 58872.0000 10902.3072  81.5%     -    0s
H    0     0                    56908.000000 10902.3072  80.8%     -    0s
H    0     0                    42840.000000 10902.3072  74.6%     -    0s
H    0     0                    33756.000000 10902.3072  67.7%     -    0s
     0     0 10998.4147    0  157 33756.0000 10998.4147  67.4%     -    0s
H    0     0                    25164.000000 10998.4147  56.3%     -    0s
     0     0 11000.5463    0  153 25164.0000 11000.5463  56.3%     -    0s
     0     0 11001.5481    0  161 25164.0000 11001.5481  56.3%     -    0s
     0     0 11388.8075    0  174 25164.0000 11388.8075  54.7%     -    0s
H    0     0                    20668.000000 11388.8075  44.9%     -    0s
     0     0 11468.5742    0  174 20668.0000 11468.5742  44.5%     -    0s
     0     0 11469.7209    0  173 20668.0000 11469.7209  44.5%     -    0s
     0     0 11983.1238    0  144 20668.0000 11983.1238  42.0%     -    0s
H    0     0                    18068.000000 11983.1238  33.7%     -    0s
     0     0 12478.4756    0  157 18068.0000 12478.4756  30.9%     -    0s
H    0     0                    15568.000000 12478.4756  19.8%     -    0s
     0     0 12486.3175    0  168 15568.0000 12486.3175  19.8%     -    0s
     0     0 12487.0000    0  135 15568.0000 12487.0000  19.8%     -    0s
     0     0 12533.2733    0  166 15568.0000 12533.2733  19.5%     -    0s
H    0     0                    15564.000000 12533.2733  19.5%     -    0s
     0     0 12540.7941    0  167 15564.0000 12540.7941  19.4%     -    0s
     0     0 12541.6744    0  167 15564.0000 12541.6744  19.4%     -    0s
     0     0 12544.9340    0  180 15564.0000 12544.9340  19.4%     -    0s
H    0     0                    13556.000000 12544.9340  7.46%     -    0s
     0     0 12550.4184    0  188 13556.0000 12550.4184  7.42%     -    0s
     0     0 12551.6696    0  189 13556.0000 12551.6696  7.41%     -    0s
     0     0 12551.6805    0  187 13556.0000 12551.6805  7.41%     -    0s
     0     0 12612.5084    0  160 13556.0000 12612.5084  6.96%     -    1s
     0     0 12612.5084    0   90 13556.0000 12612.5084  6.96%     -    1s
     0     0 12612.5084    0  134 13556.0000 12612.5084  6.96%     -    1s
     0     0 12612.5084    0   49 13556.0000 12612.5084  6.96%     -    1s
     0     0 12655.2000    0   44 13556.0000 12655.2000  6.65%     -    1s
     0     0 12658.5946    0   54 13556.0000 12658.5946  6.62%     -    1s
     0     0 12659.5556    0   44 13556.0000 12659.5556  6.61%     -    1s
     0     0 12659.7867    0   49 13556.0000 12659.7867  6.61%     -    1s
     0     0 12660.0000    0    2 13556.0000 12660.0000  6.61%     -    1s
H    0     0                    12660.000000 12660.0000  0.00%     -    1s
     0     0 12660.0000    0    2 12660.0000 12660.0000  0.00%     -    1s

Cutting planes:
  Gomory: 4
  Cover: 2
  Clique: 15
  MIR: 21
  StrongCG: 4
  GUB cover: 36
  Zero half: 2
  RLT: 4

Explored 1 nodes (11643 simplex iterations) in 1.18 seconds (1.51 work units)
Thread count was 8 (of 8 available processors)

Solution count 10: 12660 13556 15564 ... 56908

Optimal solution found (tolerance 1.00e-04)
Best objective 1.266000000000e+04, best bound 1.266000000000e+04, gap 0.0000%

Gurobi 9.5.2 (mac64[arm]) logging started Mon May  1 22:25:36 2023

Set parameter LogFile to value "Java/output/special_iterative/scenario_seed_0_nJob_50_machineCount_2/mip_increment_2/log.txt"
Gurobi Optimizer version 9.5.2 build v9.5.2rc0 (mac64[arm])
Thread count: 8 physical cores, 8 logical processors, using up to 8 threads
Optimize a model with 1656 rows, 7655 columns and 57016 nonzeros
Model fingerprint: 0x0db9253c
Variable types: 0 continuous, 7655 integer (7655 binary)
Coefficient statistics:
  Matrix range     [1e+00, 3e+02]
  Objective range  [1e+02, 6e+05]
  Bounds range     [1e+00, 1e+00]
  RHS range        [1e+00, 1e+00]
Found heuristic solution: objective 2183411.0000
Presolve removed 709 rows and 705 columns
Presolve time: 0.07s
Presolved: 947 rows, 6950 columns, 51678 nonzeros
Variable types: 0 continuous, 6950 integer (6950 binary)
Found heuristic solution: objective 1402885.0000

Root relaxation: objective 3.850517e+05, 1957 iterations, 0.05 seconds (0.09 work units)

    Nodes    |    Current Node    |     Objective Bounds      |     Work
 Expl Unexpl |  Obj  Depth IntInf | Incumbent    BestBd   Gap | It/Node Time

     0     0 385051.724    0   84 1402885.00 385051.724  72.6%     -    0s
H    0     0                    866214.00000 385051.724  55.5%     -    0s
H    0     0                    700095.00000 385051.724  45.0%     -    0s
H    0     0                    690828.00000 385051.724  44.3%     -    0s
H    0     0                    529787.00000 385051.724  27.3%     -    0s
H    0     0                    515453.00000 386938.307  24.9%     -    0s
     0     0 386938.307    0  136 515453.000 386938.307  24.9%     -    0s
H    0     0                    508360.00000 386938.307  23.9%     -    0s
H    0     0                    489434.00000 387471.393  20.8%     -    0s
H    0     0                    457453.00000 387471.393  15.3%     -    0s
     0     0 387471.393    0  144 457453.000 387471.393  15.3%     -    0s
     0     0 387646.935    0  131 457453.000 387646.935  15.3%     -    0s
H    0     0                    456322.00000 389384.940  14.7%     -    0s
H    0     0                    407232.00000 389384.940  4.38%     -    0s
     0     0 389384.940    0  175 407232.000 389384.940  4.38%     -    0s
H    0     0                    406421.00000 389384.940  4.19%     -    0s
     0     0 390036.353    0  172 406421.000 390036.353  4.03%     -    0s
     0     0 390121.194    0  172 406421.000 390121.194  4.01%     -    0s
     0     0 390144.699    0  175 406421.000 390144.699  4.00%     -    0s
H    0     0                    403765.00000 390144.699  3.37%     -    0s
H    0     0                    400721.00000 390144.699  2.64%     -    0s
H    0     0                    400519.00000 390144.699  2.59%     -    0s
     0     0 392461.397    0  143 400519.000 392461.397  2.01%     -    0s
     0     0 392461.397    0   85 400519.000 392461.397  2.01%     -    0s
     0     0 392461.397    0  165 400519.000 392461.397  2.01%     -    0s
     0     0 392461.397    0  172 400519.000 392461.397  2.01%     -    0s
     0     0 392746.085    0  178 400519.000 392746.085  1.94%     -    0s
     0     0 392792.473    0  170 400519.000 392792.473  1.93%     -    0s
     0     0 392804.117    0  174 400519.000 392804.117  1.93%     -    0s
     0     0 392804.311    0  174 400519.000 392804.311  1.93%     -    0s
     0     0 392921.214    0  130 400519.000 392921.214  1.90%     -    0s
     0     0 392921.377    0  134 400519.000 392921.377  1.90%     -    0s
     0     0 393043.369    0  125 400519.000 393043.369  1.87%     -    0s
H    0     0                    399334.00000 393043.369  1.58%     -    0s
     0     0 393059.150    0  171 399334.000 393059.150  1.57%     -    0s
     0     0 393064.021    0  126 399334.000 393064.021  1.57%     -    0s
     0     0 393064.021    0  129 399334.000 393064.021  1.57%     -    0s
     0     0 393115.176    0  189 399334.000 393115.176  1.56%     -    0s
     0     0 393145.788    0  183 399334.000 393145.788  1.55%     -    0s
     0     0 393145.788    0  180 399334.000 393145.788  1.55%     -    0s
     0     0 393161.652    0  116 399334.000 393161.652  1.55%     -    0s
     0     0 393164.330    0  125 399334.000 393164.330  1.54%     -    0s
     0     0 393169.963    0  110 399334.000 393169.963  1.54%     -    1s
     0     0 393169.963    0   95 399334.000 393169.963  1.54%     -    1s
     0     2 393280.267    0   95 399334.000 393280.267  1.52%     -    1s

Cutting planes:
  Gomory: 2
  Cover: 5
  Clique: 36
  MIR: 49
  StrongCG: 22
  GUB cover: 41
  Zero half: 15
  RLT: 6

Explored 88 nodes (17358 simplex iterations) in 1.40 seconds (1.98 work units)
Thread count was 8 (of 8 available processors)

Solution count 10: 399334 400519 400519 ... 456322

Optimal solution found (tolerance 1.00e-04)
Best objective 3.993340000000e+05, best bound 3.993340000000e+05, gap 0.0000%

Gurobi 9.5.2 (mac64[arm]) logging started Mon May  1 22:25:38 2023

Set parameter LogFile to value "Java/output/special_iterative/scenario_seed_0_nJob_50_machineCount_2/mip_increment_2/log.txt"
Gurobi Optimizer version 9.5.2 build v9.5.2rc0 (mac64[arm])
Thread count: 8 physical cores, 8 logical processors, using up to 8 threads
Optimize a model with 3382 rows, 78300 columns and 980110 nonzeros
Model fingerprint: 0x99700353
Variable types: 0 continuous, 78300 integer (78300 binary)
Coefficient statistics:
  Matrix range     [1e+00, 3e+02]
  Objective range  [1e+00, 6e+06]
  Bounds range     [1e+00, 1e+00]
  RHS range        [1e+00, 1e+00]

Warning: Completing partial solution with 78150 unfixed non-continuous variables out of 78300
User MIP start produced solution with objective 334746 (0.06s)
Loaded user MIP start with objective 334746

Presolve removed 91 rows and 7280 columns
Presolve time: 1.03s
Presolved: 3291 rows, 71020 columns, 892253 nonzeros
Variable types: 0 continuous, 71020 integer (71020 binary)
Found heuristic solution: objective 320156.00000

Root simplex log...

Iteration    Objective       Primal Inf.    Dual Inf.      Time
   19998    2.0071401e+04   8.489913e+05   0.000000e+00      5s
   40423    2.2219994e+04   1.579362e+05   0.000000e+00     10s
   57137    2.2894178e+04   2.499353e+04   0.000000e+00     15s
Warning: Markowitz tolerance tightened to 0.03125
   71803    2.3059685e+04   2.753839e+03   0.000000e+00     20s
   78303    2.3137939e+04   0.000000e+00   0.000000e+00     23s

Root relaxation: objective 2.313794e+04, 78303 iterations, 21.72 seconds (58.82 work units)

    Nodes    |    Current Node    |     Objective Bounds      |     Work
 Expl Unexpl |  Obj  Depth IntInf | Incumbent    BestBd   Gap | It/Node Time

     0     0 23137.9390    0  668 320156.000 23137.9390  92.8%     -   23s
H    0     0                    318187.00000 23137.9390  92.7%     -   23s
H    0     0                    314644.00000 23137.9390  92.6%     -   23s
H    0     0                    298651.00000 23235.2282  92.2%     -   35s
     0     0 23235.2282    0  818 298651.000 23235.2282  92.2%     -   36s
H    0     0                    298649.00000 23235.2282  92.2%     -   36s
     0     0 23243.4586    0  857 298649.000 23243.4586  92.2%     -   41s
     0     0 23244.7838    0  842 298649.000 23244.7838  92.2%     -   42s
     0     0 23244.8564    0  837 298649.000 23244.8564  92.2%     -   42s
     0     0 23244.8582    0  838 298649.000 23244.8582  92.2%     -   42s
     0     0 23307.6922    0  903 298649.000 23307.6922  92.2%     -   48s
H    0     0                    285500.00000 23307.6922  91.8%     -   49s
H    0     0                    285379.00000 23317.4679  91.8%     -   52s
     0     0 23317.4679    0  934 285379.000 23317.4679  91.8%     -   52s
     0     0 23318.5711    0  986 285379.000 23318.5711  91.8%     -   53s
     0     0 23318.7741    0  986 285379.000 23318.7741  91.8%     -   54s
     0     0 23318.7761    0  998 285379.000 23318.7761  91.8%     -   54s
     0     0 23344.3243    0 1025 285379.000 23344.3243  91.8%     -   61s
     0     0 23344.3243    0  656 285379.000 23344.3243  91.8%     -   81s
H    0     0                    285365.00000 23344.3243  91.8%     -   82s
     0     0 23344.3243    0  828 285365.000 23344.3243  91.8%     -   91s
     0     0 23344.3243    0  886 285365.000 23344.3243  91.8%     -   99s
     0     0 23356.1707    0  995 285365.000 23356.1707  91.8%     -  105s
     0     0 23357.8487    0 1004 285365.000 23357.8487  91.8%     -  107s
     0     0 23357.8975    0 1034 285365.000 23357.8975  91.8%     -  107s
     0     0 23384.6230    0 1102 285365.000 23384.6230  91.8%     -  116s
H    0     0                    281847.00000 23384.6230  91.7%     -  116s
     0     0 23402.4593    0 1170 281847.000 23402.4593  91.7%     -  126s
     0     0 23412.1635    0 1241 281847.000 23412.1635  91.7%     -  133s
     0     0 23413.6085    0 1236 281847.000 23413.6085  91.7%     -  135s
     0     0 23413.7010    0 1224 281847.000 23413.7010  91.7%     -  136s
     0     0 23413.7260    0 1234 281847.000 23413.7260  91.7%     -  136s
     0     0 23451.4129    0 1229 281847.000 23451.4129  91.7%     -  144s
     0     0 23472.3297    0 1251 281847.000 23472.3297  91.7%     -  158s
     0     0 23487.7551    0 1267 281847.000 23487.7551  91.7%     -  164s
     0     0 23489.8908    0 1305 281847.000 23489.8908  91.7%     -  166s
     0     0 23490.2441    0 1311 281847.000 23490.2441  91.7%     -  166s
     0     0 23490.3554    0 1314 281847.000 23490.3554  91.7%     -  167s
     0     0 23490.3952    0 1321 281847.000 23490.3952  91.7%     -  167s
     0     0 23526.0039    0 1293 281847.000 23526.0039  91.7%     -  175s
     0     0 23538.1758    0 1313 281847.000 23538.1758  91.6%     -  182s
     0     0 23550.1984    0 1357 281847.000 23550.1984  91.6%     -  187s
     0     0 23552.3637    0 1345 281847.000 23552.3637  91.6%     -  189s
     0     0 23552.6916    0 1367 281847.000 23552.6916  91.6%     -  190s
     0     0 23552.8807    0 1394 281847.000 23552.8807  91.6%     -  191s
     0     0 23552.9103    0 1402 281847.000 23552.9103  91.6%     -  191s
     0     0 23604.0874    0 1368 281847.000 23604.0874  91.6%     -  201s
     0     0 23615.0078    0 1415 281847.000 23615.0078  91.6%     -  218s
     0     0 23619.3646    0 1424 281847.000 23619.3646  91.6%     -  222s
     0     0 23620.6895    0 1441 281847.000 23620.6895  91.6%     -  224s
     0     0 23620.9375    0 1436 281847.000 23620.9375  91.6%     -  224s
     0     0 23621.3111    0 1446 281847.000 23621.3111  91.6%     -  225s
     0     0 23621.4763    0 1449 281847.000 23621.4763  91.6%     -  226s
     0     0 23658.7314    0 1435 281847.000 23658.7314  91.6%     -  235s
H    0     0                    240179.00000 23658.7314  90.1%     -  236s
     0     0 23669.0818    0 1461 240179.000 23669.0818  90.1%     -  240s
     0     0 23676.9477    0 1486 240179.000 23676.9477  90.1%     -  245s
     0     0 23678.6822    0 1504 240179.000 23678.6822  90.1%     -  247s
     0     0 23679.8201    0 1536 240179.000 23679.8201  90.1%     -  249s
     0     0 23680.6024    0 1523 240179.000 23680.6024  90.1%     -  250s
     0     0 23680.7289    0 1523 240179.000 23680.7289  90.1%     -  250s
     0     0 23703.0606    0 1505 240179.000 23703.0606  90.1%     -  258s
H    0     0                    240170.00000 23703.0606  90.1%     -  258s
H    0     0                    240169.00000 23703.0606  90.1%     -  258s
     0     0 23716.1912    0 1528 240169.000 23716.1912  90.1%     -  266s
     0     0 23728.4518    0 1525 240169.000 23728.4518  90.1%     -  274s
     0     0 23730.3740    0 1540 240169.000 23730.3740  90.1%     -  276s
     0     0 23731.6270    0 1560 240169.000 23731.6270  90.1%     -  278s
     0     0 23732.0659    0 1581 240169.000 23732.0659  90.1%     -  279s
     0     0 23732.1212    0 1595 240169.000 23732.1212  90.1%     -  280s
     0     0 23768.5951    0 1543 240169.000 23768.5951  90.1%     -  288s
H    0     0                    238950.00000 23768.5951  90.1%     -  289s
     0     0 23778.3688    0 1553 238950.000 23778.3688  90.0%     -  295s
     0     0 23781.4265    0 1574 238950.000 23781.4265  90.0%     -  299s
     0     0 23785.4766    0 1575 238950.000 23785.4766  90.0%     -  303s
     0     0 23786.2939    0 1612 238950.000 23786.2939  90.0%     -  304s
     0     0 23786.7180    0 1616 238950.000 23786.7180  90.0%     -  305s
     0     0 23786.7689    0 1623 238950.000 23786.7689  90.0%     -  306s
     0     0 23973.5885    0 1530 238950.000 23973.5885  90.0%     -  320s
H    0     0                    238882.00000 23973.5885  90.0%     -  320s
H    0     0                    238467.00000 23973.5885  89.9%     -  343s
     0     0 23986.4571    0 1552 238467.000 23986.4571  89.9%     -  350s
     0     0 23992.8994    0 1556 238467.000 23992.8994  89.9%     -  355s
     0     0 23994.6415    0 1579 238467.000 23994.6415  89.9%     -  357s
     0     0 23994.9685    0 1577 238467.000 23994.9685  89.9%     -  358s
     0     0 24092.6497    0 1532 238467.000 24092.6497  89.9%     -  370s
H    0     0                    237541.00000 24092.6497  89.9%     -  370s
     0     0 24099.1433    0 1568 237541.000 24099.1433  89.9%     -  375s
     0     0 24103.7895    0 1574 237541.000 24103.7895  89.9%     -  380s
     0     0 24108.1651    0 1601 237541.000 24108.1651  89.9%     -  384s
     0     0 24110.6935    0 1611 237541.000 24110.6935  89.8%     -  387s
     0     0 24111.8654    0 1636 237541.000 24111.8654  89.8%     -  389s
     0     0 24112.1693    0 1652 237541.000 24112.1693  89.8%     -  390s
     0     0 24160.2072    0 1575 237541.000 24160.2072  89.8%     -  403s
     0     0 24166.1551    0 1606 237541.000 24166.1551  89.8%     -  408s
     0     0 24179.6551    0 1569 237541.000 24179.6551  89.8%     -  415s
     0     0 24186.0162    0 1620 237541.000 24186.0162  89.8%     -  421s
     0     0 24188.2971    0 1652 237541.000 24188.2971  89.8%     -  424s
     0     0 24189.4136    0 1679 237541.000 24189.4136  89.8%     -  426s
     0     0 24189.9987    0 1661 237541.000 24189.9987  89.8%     -  427s
     0     0 24204.5847    0 1685 237541.000 24204.5847  89.8%     -  436s
H    0     0                    222446.00000 24204.5847  89.1%     -  436s
     0     0 24207.6003    0 1696 222446.000 24207.6003  89.1%     -  440s
     0     0 24209.6491    0 1679 222446.000 24209.6491  89.1%     -  443s
     0     0 24210.3081    0 1679 222446.000 24210.3081  89.1%     -  444s
     0     0 24252.4685    0 1621 222446.000 24252.4685  89.1%     -  452s
H    0     0                    162273.00000 24252.4685  85.1%     -  462s
     0     0 24259.1951    0 1660 162273.000 24259.1951  85.1%     -  462s
     0     0 24262.6018    0 1684 162273.000 24262.6018  85.0%     -  466s
     0     0 24263.4379    0 1672 162273.000 24263.4379  85.0%     -  468s
     0     0          -    0      162273.000 24263.4379  85.0%     -  469s

Cutting planes:
  Cover: 1
  Clique: 241
  MIR: 281
  StrongCG: 119
  GUB cover: 278
  Mod-K: 1
  RLT: 3

Explored 1 nodes (591415 simplex iterations) in 469.02 seconds (1227.78 work units)
Thread count was 8 (of 8 available processors)

Solution count 10: 162273 222446 237541 ... 281847

Time limit reached
Best objective 1.622730000000e+05, best bound 2.426343787641e+04, gap 85.0478%
